SPARKNaCl/why3-z3/sparknacl-secretbox.adb_129_24_postcondition2_1.smt2
;; produced by z3_gnatprove.drv ;;
(set-info :smt-lib-version 2.5)
(set-info :source |VC generated by SPARK 2014|)
(set-info :category industrial)
(set-info :status unknown)
;;; generated by SMT-LIB2 driver
;;; SMT-LIB2 driver: bit-vectors, common part
;;; SMT-LIB2: integer arithmetic
(define-fun __cdiv ((x Int) (y Int)) Int (ite (>= x 0) (div x y) (- (div (- x) y))))
(define-fun __cmod ((x Int) (y Int)) Int (ite (>= x 0) (mod x y) (- (mod (- x) y))))
(declare-datatypes ()
  ((bool__ref (bool__refqtmk (bool__content Bool)))))

;; "mod"
(define-fun mod1 ((x Int) (y Int)) Int
  (ite (<= 0 y) (mod x y) (- (mod (- x) y))))

(declare-sort tinteger_32B 0)

;; "tinteger_32B'int"
(declare-fun tinteger_32Bqtint (tinteger_32B) Int)

;; "tinteger_32B'axiom"
(assert
  (forall ((i tinteger_32B))
    (and
      (<= (- 2147483648) (tinteger_32Bqtint i))
      (<= (tinteger_32Bqtint i) 2147483647))))

;; "in_range"
(define-fun in_range ((x Int)) Bool
  (and (<= (- 2147483648) x) (<= x 2147483647)))

;; "to_rep"
(define-fun to_rep ((x tinteger_32B)) Int
  (tinteger_32Bqtint x))

;; "of_rep"
(declare-fun of_rep (Int) tinteger_32B)

;; "inversion_axiom"
(assert
  (forall ((x tinteger_32B))
    (! (= (of_rep (to_rep x)) x) :pattern ((to_rep x)) )))

;; "range_axiom"
(assert
  (forall ((x tinteger_32B))
    (! (in_range (to_rep x)) :pattern ((to_rep x)) )))

;; "coerce_axiom"
(assert
  (forall ((x Int))
    (! (=> (in_range x) (= (to_rep (of_rep x)) x)) :pattern ((to_rep
                                                               (of_rep x))) )))

;; "in_range"
(define-fun in_range1 ((x Int)) Bool
  (and (<= 0 x) (<= x 2147483647)))

(declare-sort byte 0)

;; "to_rep"
(declare-fun to_rep1 (byte) (_ BitVec 8))

;; "of_rep"
(declare-fun of_rep1 ((_ BitVec 8)) byte)

;; "inversion_axiom"
(assert
  (forall ((x byte)) (! (= (of_rep1 (to_rep1 x)) x) :pattern ((to_rep1 x)) )))

;; "range_axiom"
(assert true)

;; "coerce_axiom"
(assert
  (forall ((x (_ BitVec 8)))
    (! (= (to_rep1 (of_rep1 x)) x) :pattern ((to_rep1 (of_rep1 x))) )))

(declare-sort map1 0)

;; "has_bounds"
(declare-fun has_bounds (map1
  Int
  Int) Bool)

;; "get"
(declare-fun get (map1
  Int) byte)

(declare-datatypes ()
  ((t (tqtmk (rec__first tinteger_32B)(rec__last tinteger_32B)))))

;; "mk"
(declare-fun mk (Int
  Int) t)

;; "mk_def"
(assert
  (forall ((f Int) (l Int))
    (! (=>
         (in_range f)
         (=>
           (in_range l)
           (and
             (= (to_rep (rec__first (mk f l))) f)
             (= (to_rep (rec__last (mk f l))) l)))) :pattern ((mk f l)) )))

;; "dynamic_property"
(define-fun dynamic_property ((range_first Int) (range_last Int) (low Int) (high Int)) Bool
  (and
    (in_range low)
    (and
      (in_range high)
      (=> (<= low high) (and (in_range1 low) (in_range1 high))))))

(declare-datatypes ()
  ((us_t (us_tqtmk (elts map1)(rt t)))))

;; "to_array"
(define-fun to_array ((a us_t)) map1
  (elts a))

;; "of_array"
(define-fun of_array ((a map1) (f Int) (l Int)) us_t
  (us_tqtmk a (mk f l)))

;; "first"
(define-fun first ((a us_t)) Int
  (to_rep (rec__first (rt a))))

;; "last"
(define-fun last ((a us_t)) Int
  (to_rep (rec__last (rt a))))

;; "length"
(define-fun length ((a us_t)) Int
  (ite (<= (first a) (last a)) (+ (- (last a) (first a)) 1) 0))

;; "well_formed"
(define-fun well_formed ((a us_t)) Bool
  (has_bounds
    (elts a)
    (to_rep (rec__first (rt a)))
    (to_rep (rec__last (rt a)))))

(declare-datatypes ()
  ((byte_seq__ref (byte_seq__refqtmk (byte_seq__content us_t)))))

(declare-const len Int)

(declare-const r Int)

(declare-const null_byte_seq map1)

(declare-const padding us_t)

;; "ada___sparknacl__secretbox__gen_auth_msg__pad16__null_byte_seq__aggregate_def"
(declare-fun ada___sparknacl__secretbox__gen_auth_msg__pad16__null_byte_seq__aggregate_def ((_ BitVec 8)) map1)

;; "ada___sparknacl__secretbox__gen_auth_msg__pad16__B_4__padding__aggregate_def"
(declare-fun ada___sparknacl__secretbox__gen_auth_msg__pad16__B_4__padding__aggregate_def ((_ BitVec 8)
  Int
  Int) us_t)

;; "dynamic_invariant"
(define-fun dynamic_invariant ((temp___expr_609 us_t) (temp___is_init_605 Bool) (temp___skip_constant_606 Bool) (temp___do_toplevel_607 Bool) (temp___do_typ_inv_608 Bool) (Ada___sparknacl__secretbox__gen_auth_msg__pad16__r___r___ Int)) Bool
  (and
    (=>
      (not (= temp___skip_constant_606 true))
      (and
        (and
          (dynamic_property
            0
            (- (- 16 Ada___sparknacl__secretbox__gen_auth_msg__pad16__r___r___) 1)
            (first temp___expr_609)
            (last temp___expr_609))
          (= (first temp___expr_609) 0))
        (= (last temp___expr_609) (- (- 16 Ada___sparknacl__secretbox__gen_auth_msg__pad16__r___r___) 1))))
    (well_formed temp___expr_609)))

;; "def_axiom"
(assert
  (forall ((temp___187 (_ BitVec 8)))
    (let ((temp___188 (ada___sparknacl__secretbox__gen_auth_msg__pad16__null_byte_seq__aggregate_def
                        temp___187)))
      (and
        (has_bounds temp___188 1 0)
        (forall ((temp___189 Int))
          (! (=>
               (and (<= 1 temp___189) (<= temp___189 0))
               (= (to_rep1 (get temp___188 temp___189)) temp___187)) :pattern (
          (get
            temp___188
            temp___189)) ))))))

;; "def_axiom"
(assert
  (forall ((temp___193 (_ BitVec 8)))
    (forall ((temp___first_194 Int) (temp___last_195 Int))
      (let ((temp___196 (ada___sparknacl__secretbox__gen_auth_msg__pad16__B_4__padding__aggregate_def
                          temp___193
                          temp___first_194
                          temp___last_195)))
        (and
          (=>
            (dynamic_property 0 2147483647 temp___first_194 temp___last_195)
            (and
              (= (first temp___196) temp___first_194)
              (= (last temp___196) temp___last_195)))
          (and
            (well_formed temp___196)
            (forall ((temp___197 Int))
              (! (=>
                   (and
                     (<= (first temp___196) temp___197)
                     (<= temp___197 (last temp___196)))
                   (= (to_rep1 (get (to_array temp___196) temp___197)) temp___193)) :pattern (
              (get
                (to_array temp___196)
                temp___197)) ))))))))

;; "Assume"
(assert (in_range1 len))

(declare-const ada___sparknacl__secretbox__gen_auth_msg__pad16__result us_t)

;; "ada___sparknacl__secretbox__gen_auth_msg__pad16__result'unused"
(define-fun ada___sparknacl__secretbox__gen_auth_msg__pad16__resultqtunused 
  () byte_seq__ref
  (byte_seq__refqtmk ada___sparknacl__secretbox__gen_auth_msg__pad16__result))

(declare-const o Int)

;; "H"
(assert (= o (mod1 len 16)))

(declare-const mod_qtresultqtunused Int)

;; "H"
(assert (= mod_qtresultqtunused o))

(declare-const ada___sparknacl__secretbox__gen_auth_msg__pad16__r__assumeqtunused Int)

;; "H"
(assert
  (= ada___sparknacl__secretbox__gen_auth_msg__pad16__r__assumeqtunused 
  o))

;; "Ensures"
(assert (in_range1 o))

(declare-const range_check_qtresultqtunused Int)

;; "H"
(assert (= range_check_qtresultqtunused o))

;; "Assume"
(assert (= o r))

;; "Assume"
(assert (in_range1 r))

(declare-const temp___1102 map1)

;; "H"
(assert (has_bounds temp___1102 1 0))

;; "H"
(assert
  (forall ((temp___190 Int))
    (! (=>
         (and (<= 1 temp___190) (<= temp___190 0))
         (= (to_rep1 (get temp___1102 temp___190)) #x00)) :pattern ((get
                                                                    temp___1102
                                                                    temp___190)) )))

;; "H"
(assert
  (= temp___1102 (ada___sparknacl__secretbox__gen_auth_msg__pad16__null_byte_seq__aggregate_def
                   #x00)))

(declare-const ada___sparknacl__secretbox__gen_auth_msg__pad16__null_byte_seq__aggregate_defqtresultqtunused map1)

;; "H"
(assert
  (= ada___sparknacl__secretbox__gen_auth_msg__pad16__null_byte_seq__aggregate_defqtresultqtunused 
  temp___1102))

(declare-const ada___sparknacl__secretbox__gen_auth_msg__pad16__null_byte_seq__assumeqtunused map1)

;; "H"
(assert
  (= ada___sparknacl__secretbox__gen_auth_msg__pad16__null_byte_seq__assumeqtunused 
  temp___1102))

;; "Assume"
(assert (= temp___1102 null_byte_seq))

;; "Assume"
(assert (has_bounds null_byte_seq 1 0))

(declare-const o1 Bool)

;; "H"
(assert (= o1 (ite (= r 0) true false)))

(declare-const infix_eqqtresultqtunused Bool)

;; "H"
(assert (= infix_eqqtresultqtunused o1))

(declare-const spark__branch Bool)

(declare-const spark__branchqtunused bool__ref)

;; "H"
(assert (= spark__branchqtunused (bool__refqtmk spark__branch)))

;; "H"
(assert (= spark__branch o1))

(declare-const bool__contentqtresultqtunused Bool)

;; "H"
(assert (= bool__contentqtresultqtunused spark__branch))

(declare-const o2 Int)

(declare-const infix_mnqtresultqtunused Int)

(declare-const o3 Int)

(declare-const infix_mnqtresultqtunused1 Int)

(declare-const temp___1110 us_t)

(declare-const ada___sparknacl__secretbox__gen_auth_msg__pad16__B_4__padding__aggregate_defqtresultqtunused us_t)

(declare-const temp___1111 map1)

(declare-const to_arrayqtresultqtunused map1)

(declare-const o4 Int)

(declare-const lastqtresultqtunused Int)

(declare-const o5 Int)

(declare-const firstqtresultqtunused Int)

(declare-const ada___sparknacl__secretbox__gen_auth_msg__pad16__B_4__padding__assume us_t)

(declare-const of_arrayqtresultqtunused us_t)

(declare-const temp___1106 map1)

(declare-const to_arrayqtresultqtunused1 map1)

(declare-const o6 Int)

(declare-const lastqtresultqtunused1 Int)

(declare-const o7 Int)

(declare-const firstqtresultqtunused1 Int)

(declare-const o8 us_t)

(declare-const of_arrayqtresultqtunused1 us_t)

(declare-const o9 us_t)

(declare-const of_arrayqtresultqtunused2 us_t)

;; "H"
(assert
  (ite (= spark__branch true)
    (and
      (= o9 (of_array null_byte_seq 1 0))
      (and
        (= of_arrayqtresultqtunused2 o9)
        (= ada___sparknacl__secretbox__gen_auth_msg__pad16__result o9)))
    (and
      (= o2 (- 16 r))
      (and
        (= infix_mnqtresultqtunused o2)
        (and
          (= o3 (- o2 1))
          (and
            (= infix_mnqtresultqtunused1 o3)
            (and
              (and
                (and
                  (and (= (first temp___1110) 0) (= (last temp___1110) o3))
                  (and
                    (well_formed temp___1110)
                    (forall ((temp___198 Int))
                      (! (=>
                           (and
                             (<= (first temp___1110) temp___198)
                             (<= temp___198 (last temp___1110)))
                           (= (to_rep1
                                (get (to_array temp___1110) temp___198)) #x00)) :pattern (
                      (get
                        (to_array temp___1110)
                        temp___198)) ))))
                (= temp___1110 (ada___sparknacl__secretbox__gen_auth_msg__pad16__B_4__padding__aggregate_def
                                 #x00
                                 0
                                 o3)))
              (and
                (= ada___sparknacl__secretbox__gen_auth_msg__pad16__B_4__padding__aggregate_defqtresultqtunused 
                temp___1110)
                (and
                  (= temp___1111 (to_array temp___1110))
                  (and
                    (= to_arrayqtresultqtunused temp___1111)
                    (and
                      (ite (<= (first temp___1110) (last temp___1110))
                        (and
                          (<= 0 (- (- 16 r) 1))
                          (= (- (last temp___1110) (first temp___1110)) (- (- (- 16 
                          r) 1) 0)))
                        (< (- (- 16 r) 1) 0))
                      (and
                        (= o4 (last temp___1110))
                        (and
                          (= lastqtresultqtunused o4)
                          (and
                            (= o5 (first temp___1110))
                            (and
                              (= firstqtresultqtunused o5)
                              (and
                                (= ada___sparknacl__secretbox__gen_auth_msg__pad16__B_4__padding__assume 
                                temp___1110)
                                (and
                                  (= of_arrayqtresultqtunused ada___sparknacl__secretbox__gen_auth_msg__pad16__B_4__padding__assume)
                                  (and
                                    (= ada___sparknacl__secretbox__gen_auth_msg__pad16__B_4__padding__assume 
                                    padding)
                                    (and
                                      (dynamic_invariant
                                        padding
                                        true
                                        false
                                        true
                                        true
                                        r)
                                      (and
                                        (= temp___1106 (to_array padding))
                                        (and
                                          (= to_arrayqtresultqtunused1 
                                          temp___1106)
                                          (and
                                            (= o6 (last padding))
                                            (and
                                              (= lastqtresultqtunused1 
                                              o6)
                                              (and
                                                (= o7 (first padding))
                                                (and
                                                  (= firstqtresultqtunused1 
                                                  o7)
                                                  (and
                                                    (= o8 padding)
                                                    (and
                                                      (= of_arrayqtresultqtunused1 
                                                      o8)
                                                      (= ada___sparknacl__secretbox__gen_auth_msg__pad16__result 
                                                      o8))))))))))))))))))))))))))))

;; "result'unused"
(define-fun resultqtunused () us_t
  ada___sparknacl__secretbox__gen_auth_msg__pad16__result)

;; "byte_seq__content'result'unused"
(define-fun byte_seq__contentqtresultqtunused () us_t
  ada___sparknacl__secretbox__gen_auth_msg__pad16__result)

;; "H"
(assert
  (< 0 (length ada___sparknacl__secretbox__gen_auth_msg__pad16__result)))

;; Goal "def'vc"
;; File "sparknacl-secretbox.adb", line 127, characters 0-0
(assert
  (not
  (= (first ada___sparknacl__secretbox__gen_auth_msg__pad16__result) 0)))

(check-sat)
